20
38
4
40
82
23
61
0 12
0 17
1 14
1 17
2 7
3 4
3 5
3 13
3 15
3 19
4 6
4 8
4 9
4 15
4 16
4 17
4 18
5 8
5 12
5 13
5 14
5 16
5 19
6 8
6 11
6 18
7 12
7 15
8 17
9 12
9 16
9 19
10 14
10 19
12 15
12 18
13 19
15 16
7 4 9 0 1 13
18 6 10 8 15 19
14 12 17 16 5 11
2 3
